30 3168
44 77
84 69
98 186
72 96
89 70
95 13
29 166
99 199
51 44
50 198
66 199
61 154
90 80
74 151
99 108
38 55
88 157
66 121
17 107
54 65
34 52
32 27
48 193
99 114
54 146
37 72
48 41
58 15
38 130
44 66
